516 727
8795 3346
5031 4646
5208 4651
9516 3887
4426 5326
4686 8843
6050 5689
5114 2526
2142 6850
4513 4387
8874 1506
8156 5808
1555 6211
111 2691
2368 4090
7050 8027
7559 5644
1479 4330
9807 4346
8091 5495
14 2892
5092 1973
6193 7156
4267 8251
8283 9747
2937 3218
7880 6419
8865 3885
3790 7411
8169 7766
6316 5075
3295 1791
919 1140
5984 5535
5688 3773
8097 733
7070 8606
147 5846
3175 2460
5414 8070
5203 9284
7691 1576
476 4841
7232 4317
8768 6874
7524 2091
213 7298
3473 1662
5457 7671
